c description: Random 3-CNF over 18 variables and 77 clauses
c generator: CNFgen (0.9.2)
c copyright: (C) 2012-2022 Massimo Lauria <massimo.lauria@uniroma1.it>
c url: https://massimolauria.net/cnfgen
c command line: cnfgen --output CNF_4.28/18_bit_77_834.cnf randkcnf 3 18 77
c
p cnf 18 77
-9 -13 17 0
4 5 -17 0
-10 13 -17 0
-4 -9 14 0
-3 6 7 0
6 -7 8 0
-2 15 -18 0
4 -5 10 0
-2 14 -18 0
2 7 11 0
-9 -12 -16 0
1 -4 -17 0
6 -15 -16 0
6 16 17 0
-12 16 -17 0
4 10 11 0
12 16 -17 0
-7 17 18 0
-6 -11 -18 0
-2 -8 10 0
-4 9 11 0
3 8 -18 0
-1 -7 17 0
1 -6 -14 0
8 -13 -16 0
-7 -13 -15 0
1 7 -15 0
-4 7 17 0
-7 9 -14 0
-7 14 16 0
-4 -8 18 0
-12 13 14 0
6 7 13 0
1 -5 15 0
3 13 -14 0
1 13 -18 0
-11 -15 18 0
-5 11 15 0
9 11 14 0
-1 -15 17 0
-4 6 -9 0
5 15 16 0
-6 12 -14 0
-4 10 12 0
1 3 5 0
-6 -10 12 0
6 -13 18 0
-6 16 -18 0
-3 10 16 0
-3 11 -13 0
-16 -17 18 0
-5 9 -10 0
4 11 15 0
-3 8 12 0
-5 7 15 0
7 -10 -17 0
-1 -2 -14 0
-1 5 -10 0
-10 -12 -17 0
-6 -7 10 0
-5 -13 18 0
-2 -5 -16 0
-1 -10 15 0
-4 10 15 0
-1 2 -14 0
-2 10 13 0
6 8 -18 0
9 15 -16 0
-2 9 15 0
1 4 -14 0
4 17 -18 0
4 -8 -14 0
-3 14 15 0
13 -14 -15 0
-2 3 -14 0
-9 12 -16 0
7 -13 -18 0
